\ENCODING=ISO-8859-1
\Problem name: IloCplex

Minimize
 obj: 171 y(0) + 140 y(1) + 252 y(2) + 295 y(3) + 265 y(4) + 166 y(5)
      + 164 y(6) + 232 y(7) + 310 y(8) + 241 y(9) + 148 y(10) + 164 y(11)
      + 232 y(12) + 310 y(13) + 241 y(14) + 138 y(15) + 147 y(16) + 254 y(17)
      + 257 y(18) + 269 y(19) + 171 y(20) + 148 y(21) + 306 y(22) + 295 y(23)
      + 265 y(24) + 160 y(25) + 140 y(26) + 252 y(27) + 295 y(28) + 265 y(29)
      + 171 y(30) + 164 y(31) + 232 y(32) + 310 y(33) + 241 y(34) + 166 y(35)
      + 210 y(36) + 276 y(37) + 257 y(38) + 211 y(39) + 147 y(40) + 254 y(41)
      + 257 y(42) + 269 y(43) + 180 y(44) + 147 y(45) + 306 y(46) + 295 y(47)
      + 265 y(48) + 171 y(49) + 140 y(50) + 252 y(51) + 295 y(52) + 265 y(53)
      + 171 y(54) + 140 y(55) + 232 y(56) + 310 y(57) + 241 y(58) + 166 y(59)
      + 164 y(60) + 275 y(61) + 260 y(62) + 226 y(63) + 148 y(64) + 164 y(65)
      + 68 y(66) + 276 y(67) + 257 y(68) + 211 y(69) + 147 y(70) + 209 y(71)
      + 258 y(72) + 257 y(73) + 211 y(74) + 147 y(75) + 216 y(76) + 257 y(77)
      + 269 y(78) + 180 y(79) + 148 y(80) + 239 y(81) + 257 y(82) + 269 y(83)
      + 180 y(84) + 148 y(85) + 250 y(86) + 295 y(87) + 265 y(88) + 171 y(89)
      + 140 y(90) + 252 y(91) + 310 y(92) + 241 y(93) + 166 y(94) + 164 y(95)
      + 232 y(96) + 275 y(97) + 226 y(98) + 148 y(99) + 164 y(100) + 232 y(101)
      + 230 y(102) + 260 y(103) + 226 y(104) + 148 y(105) + 164 y(106)
      + 232 y(107) + 235 y(108) + 257 y(109) + 211 y(110) + 147 y(111)
      + 254 y(112) + 241 y(113) + 269 y(114) + 180 y(115) + 148 y(116)
      + 306 y(117) + 253 y(118) + 265 y(119) + 171 y(120) + 140 y(121)
      + 252 y(122) + 295 y(123) + 241 y(124) + 166 y(125) + 164 y(126)
      + 232 y(127) + 310 y(128) + 236 y(129) + 148 y(130) + 164 y(131)
      + 232 y(132) + 310 y(133) + 215 y(134) + 226 y(135) + 148 y(136)
      + 164 y(137) + 232 y(138) + 310 y(139) + 218 y(140) + 205 y(141)
      + 148 y(142) + 164 y(143) + 232 y(144) + 310 y(145) + 224 y(146)
      + 211 y(147) + 147 y(148) + 254 y(149) + 257 y(150) + 256 y(151)
      + 197 y(152) + 148 y(153) + 306 y(154) + 295 y(155) + 253 y(156)
      + 180 y(157) + 148 y(158) + 306 y(159) + 295 y(160) + 264 y(161)
      + 184 y(162) + 140 y(163) + 252 y(164) + 295 y(165) + 264 y(166)
Subject To
 c1:  y(0) + y(9) + y(14) + y(20) + y(25) + y(30) + y(34) + y(39) + y(44)
      + y(49) + y(54) + y(58) + y(63) + y(69) + y(74) + y(79) + y(84) + y(89)
      + y(93) + y(98) + y(104) + y(110) + y(115) + y(120) + y(124) + y(129)
      + y(135) + y(141) + y(147) + y(152) + y(157) + y(162)  = 1
 c2:  y(0) + y(9) + y(14) + y(20) + y(25) + y(30) + y(34) + y(39) + y(44)
      + y(49) + y(54) + y(58) + y(63) + y(69) + y(74) + y(79) + y(84) + y(89)
      + y(93) + y(98) + y(104) + y(110) + y(115) + y(120) + y(124) + y(129)
      + y(135) + y(141) + y(147) + y(152) + y(157) + y(162)  = 1
 c3:  y(0) + y(9) + y(14) + y(20) + y(25) + y(30) + y(34) + y(39) + y(44)
      + y(49) + y(54) + y(58) + y(63) + y(69) + y(74) + y(79) + y(84) + y(89)
      + y(93) + y(98) + y(104) + y(110) + y(115) + y(120) + y(124) + y(129)
      + y(135) + y(141) + y(147) + y(152) + y(157) + y(162)  = 1
 c4:  y(2) + y(7) + y(12) + y(17) + y(22) + y(27) + y(32) + y(36) + y(41)
      + y(46) + y(51) + y(56) + y(61) + y(71) + y(76) + y(81) + y(86) + y(91)
      + y(96) + y(101) + y(107) + y(112) + y(117) + y(122) + y(127) + y(132)
      + y(138) + y(144) + y(149) + y(154) + y(159) + y(164)  = 1
 c5:  y(2) + y(7) + y(12) + y(17) + y(22) + y(27) + y(32) + y(36) + y(41)
      + y(46) + y(51) + y(56) + y(61) + y(71) + y(76) + y(81) + y(86) + y(91)
      + y(96) + y(101) + y(107) + y(112) + y(117) + y(122) + y(127) + y(132)
      + y(138) + y(144) + y(149) + y(154) + y(159) + y(164)  = 1
 c6:  y(2) + y(7) + y(12) + y(17) + y(22) + y(27) + y(32) + y(36) + y(41)
      + y(46) + y(51) + y(56) + y(61) + y(71) + y(76) + y(81) + y(86) + y(91)
      + y(96) + y(101) + y(107) + y(112) + y(117) + y(122) + y(127) + y(132)
      + y(138) + y(144) + y(149) + y(154) + y(159) + y(164)  = 1
 c7:  y(2) + y(7) + y(12) + y(17) + y(22) + y(27) + y(32) + y(36) + y(41)
      + y(46) + y(51) + y(56) + y(66) + y(71) + y(76) + y(81) + y(86) + y(91)
      + y(96) + y(101) + y(107) + y(112) + y(117) + y(122) + y(127) + y(132)
      + y(138) + y(144) + y(149) + y(154) + y(159) + y(164)  = 1
 c8:  y(2) + y(7) + y(12) + y(17) + y(22) + y(27) + y(32) + y(36) + y(41)
      + y(46) + y(51) + y(56) + y(66) + y(71) + y(76) + y(81) + y(86) + y(91)
      + y(96) + y(101) + y(107) + y(112) + y(117) + y(122) + y(127) + y(132)
      + y(138) + y(144) + y(149) + y(154) + y(159) + y(164)  = 1
 c9:  y(2) + y(7) + y(12) + y(17) + y(22) + y(27) + y(32) + y(36) + y(41)
      + y(46) + y(51) + y(56) + y(66) + y(71) + y(76) + y(81) + y(86) + y(91)
      + y(96) + y(101) + y(107) + y(112) + y(117) + y(122) + y(127) + y(132)
      + y(138) + y(144) + y(149) + y(154) + y(159) + y(164)  = 1
 c10: y(2) + y(6) + y(11) + y(17) + y(22) + y(27) + y(31) + y(36) + y(41)
      + y(46) + y(51) + y(60) + y(65) + y(71) + y(76) + y(81) + y(86) + y(91)
      + y(95) + y(100) + y(106) + y(112) + y(117) + y(122) + y(126) + y(131)
      + y(137) + y(143) + y(149) + y(154) + y(159) + y(164)  = 1
 c11: y(2) + y(6) + y(11) + y(17) + y(22) + y(27) + y(31) + y(36) + y(41)
      + y(46) + y(51) + y(60) + y(65) + y(71) + y(76) + y(81) + y(86) + y(91)
      + y(95) + y(100) + y(106) + y(112) + y(117) + y(122) + y(126) + y(131)
      + y(137) + y(143) + y(149) + y(154) + y(159) + y(164)  = 1
 c12: y(2) + y(6) + y(11) + y(17) + y(22) + y(27) + y(31) + y(36) + y(41)
      + y(46) + y(51) + y(60) + y(65) + y(71) + y(76) + y(81) + y(86) + y(91)
      + y(95) + y(100) + y(106) + y(112) + y(117) + y(122) + y(126) + y(131)
      + y(137) + y(143) + y(149) + y(154) + y(159) + y(164)  = 1
 c13: y(1) + y(6) + y(11) + y(17) + y(22) + y(26) + y(31) + y(36) + y(41)
      + y(46) + y(55) + y(60) + y(65) + y(71) + y(76) + y(81) + y(86) + y(90)
      + y(95) + y(100) + y(106) + y(112) + y(117) + y(121) + y(126) + y(131)
      + y(137) + y(143) + y(149) + y(154) + y(159) + y(163)  = 1
 c14: y(1) + y(6) + y(11) + y(17) + y(22) + y(26) + y(31) + y(36) + y(41)
      + y(46) + y(55) + y(60) + y(65) + y(71) + y(76) + y(81) + y(86) + y(90)
      + y(95) + y(100) + y(106) + y(112) + y(117) + y(121) + y(126) + y(131)
      + y(137) + y(143) + y(149) + y(154) + y(159) + y(163)  = 1
 c15: y(1) + y(6) + y(11) + y(17) + y(22) + y(26) + y(31) + y(36) + y(41)
      + y(46) + y(55) + y(60) + y(65) + y(71) + y(76) + y(81) + y(86) + y(90)
      + y(95) + y(100) + y(106) + y(112) + y(117) + y(121) + y(126) + y(131)
      + y(137) + y(143) + y(149) + y(154) + y(159) + y(163)  = 1
 c16: y(1) + y(6) + y(11) + y(17) + y(21) + y(26) + y(31) + y(36) + y(41)
      + y(50) + y(55) + y(60) + y(65) + y(71) + y(76) + y(80) + y(85) + y(90)
      + y(95) + y(100) + y(106) + y(112) + y(116) + y(121) + y(126) + y(131)
      + y(137) + y(143) + y(149) + y(153) + y(158) + y(163)  = 1
 c17: y(1) + y(6) + y(11) + y(17) + y(21) + y(26) + y(31) + y(36) + y(41)
      + y(50) + y(55) + y(60) + y(65) + y(71) + y(76) + y(80) + y(85) + y(90)
      + y(95) + y(100) + y(106) + y(112) + y(116) + y(121) + y(126) + y(131)
      + y(137) + y(143) + y(149) + y(153) + y(158) + y(163)  = 1
 c18: y(1) + y(6) + y(11) + y(17) + y(21) + y(26) + y(31) + y(36) + y(41)
      + y(50) + y(55) + y(60) + y(65) + y(71) + y(76) + y(80) + y(85) + y(90)
      + y(95) + y(100) + y(106) + y(112) + y(116) + y(121) + y(126) + y(131)
      + y(137) + y(143) + y(149) + y(153) + y(158) + y(163)  = 1
 c19: y(1) + y(6) + y(11) + y(16) + y(21) + y(26) + y(31) + y(36) + y(45)
      + y(50) + y(55) + y(60) + y(65) + y(70) + y(75) + y(80) + y(85) + y(90)
      + y(95) + y(100) + y(106) + y(111) + y(116) + y(121) + y(126) + y(131)
      + y(137) + y(143) + y(148) + y(153) + y(158) + y(163)  = 1
 c20: y(1) + y(6) + y(11) + y(16) + y(21) + y(26) + y(31) + y(36) + y(45)
      + y(50) + y(55) + y(60) + y(65) + y(70) + y(75) + y(80) + y(85) + y(90)
      + y(95) + y(100) + y(106) + y(111) + y(116) + y(121) + y(126) + y(131)
      + y(137) + y(143) + y(148) + y(153) + y(158) + y(163)  = 1
 c21: y(1) + y(6) + y(11) + y(16) + y(21) + y(26) + y(31) + y(36) + y(45)
      + y(50) + y(55) + y(60) + y(65) + y(70) + y(75) + y(80) + y(85) + y(90)
      + y(95) + y(100) + y(106) + y(111) + y(116) + y(121) + y(126) + y(131)
      + y(137) + y(143) + y(148) + y(153) + y(158) + y(163)  = 1
 c22: y(1) + y(6) + y(11) + y(16) + y(21) + y(26) + y(31) + y(40) + y(45)
      + y(50) + y(55) + y(60) + y(65) + y(70) + y(75) + y(80) + y(85) + y(90)
      + y(95) + y(100) + y(106) + y(111) + y(116) + y(121) + y(126) + y(131)
      + y(137) + y(143) + y(148) + y(153) + y(158) + y(163)  = 1
 c23: y(1) + y(6) + y(11) + y(16) + y(21) + y(26) + y(31) + y(40) + y(45)
      + y(50) + y(55) + y(60) + y(65) + y(70) + y(75) + y(80) + y(85) + y(90)
      + y(95) + y(100) + y(106) + y(111) + y(116) + y(121) + y(126) + y(131)
      + y(137) + y(143) + y(148) + y(153) + y(158) + y(163)  = 1
 c24: y(1) + y(6) + y(11) + y(16) + y(21) + y(26) + y(31) + y(40) + y(45)
      + y(50) + y(55) + y(60) + y(65) + y(70) + y(75) + y(80) + y(85) + y(90)
      + y(95) + y(100) + y(106) + y(111) + y(116) + y(121) + y(126) + y(131)
      + y(137) + y(143) + y(148) + y(153) + y(158) + y(163)  = 1
 c25: y(1) + y(5) + y(10) + y(16) + y(21) + y(26) + y(35) + y(40) + y(45)
      + y(50) + y(55) + y(59) + y(64) + y(70) + y(75) + y(80) + y(85) + y(90)
      + y(94) + y(99) + y(105) + y(111) + y(116) + y(121) + y(125) + y(130)
      + y(136) + y(142) + y(148) + y(153) + y(158) + y(163)  = 1
 c26: y(1) + y(5) + y(10) + y(16) + y(21) + y(26) + y(35) + y(40) + y(45)
      + y(50) + y(55) + y(59) + y(64) + y(70) + y(75) + y(80) + y(85) + y(90)
      + y(94) + y(99) + y(105) + y(111) + y(116) + y(121) + y(125) + y(130)
      + y(136) + y(142) + y(148) + y(153) + y(158) + y(163)  = 1
 c27: y(1) + y(5) + y(10) + y(16) + y(21) + y(26) + y(35) + y(40) + y(45)
      + y(50) + y(55) + y(59) + y(64) + y(70) + y(75) + y(80) + y(85) + y(90)
      + y(94) + y(99) + y(105) + y(111) + y(116) + y(121) + y(125) + y(130)
      + y(136) + y(142) + y(148) + y(153) + y(158) + y(163)  = 1
 c28: y(0) + y(5) + y(10) + y(16) + y(21) + y(30) + y(35) + y(40) + y(45)
      + y(49) + y(54) + y(59) + y(64) + y(70) + y(75) + y(80) + y(85) + y(89)
      + y(94) + y(99) + y(105) + y(111) + y(116) + y(120) + y(125) + y(130)
      + y(136) + y(142) + y(148) + y(153) + y(158) + y(162)  = 1
 c29: y(0) + y(5) + y(10) + y(16) + y(21) + y(30) + y(35) + y(40) + y(45)
      + y(49) + y(54) + y(59) + y(64) + y(70) + y(75) + y(80) + y(85) + y(89)
      + y(94) + y(99) + y(105) + y(111) + y(116) + y(120) + y(125) + y(130)
      + y(136) + y(142) + y(148) + y(153) + y(158) + y(162)  = 1
 c30: y(0) + y(5) + y(10) + y(16) + y(21) + y(30) + y(35) + y(40) + y(45)
      + y(49) + y(54) + y(59) + y(64) + y(70) + y(75) + y(80) + y(85) + y(89)
      + y(94) + y(99) + y(105) + y(111) + y(116) + y(120) + y(125) + y(130)
      + y(136) + y(142) + y(148) + y(153) + y(158) + y(162)  = 1
 c31: y(0) + y(5) + y(10) + y(20) + y(25) + y(30) + y(35) + y(39) + y(44)
      + y(49) + y(54) + y(59) + y(64) + y(69) + y(74) + y(79) + y(84) + y(89)
      + y(94) + y(99) + y(105) + y(110) + y(115) + y(120) + y(125) + y(130)
      + y(136) + y(142) + y(147) + y(152) + y(157) + y(162)  = 1
 c32: y(0) + y(5) + y(10) + y(20) + y(25) + y(30) + y(35) + y(39) + y(44)
      + y(49) + y(54) + y(59) + y(64) + y(69) + y(74) + y(79) + y(84) + y(89)
      + y(94) + y(99) + y(105) + y(110) + y(115) + y(120) + y(125) + y(130)
      + y(136) + y(142) + y(147) + y(152) + y(157) + y(162)  = 1
 c33: y(0) + y(5) + y(10) + y(20) + y(25) + y(30) + y(35) + y(39) + y(44)
      + y(49) + y(54) + y(59) + y(64) + y(69) + y(74) + y(79) + y(84) + y(89)
      + y(94) + y(99) + y(105) + y(110) + y(115) + y(120) + y(125) + y(130)
      + y(136) + y(142) + y(147) + y(152) + y(157) + y(162)  = 1
 c34: y(2) + y(7) + y(12) + y(17) + y(22) + y(27) + y(32) + y(37) + y(41)
      + y(46) + y(51) + y(56) + y(61) + y(67) + y(76) + y(81) + y(86) + y(91)
      + y(96) + y(101) + y(107) + y(112) + y(117) + y(122) + y(127) + y(132)
      + y(138) + y(144) + y(149) + y(154) + y(159) + y(164)  = 1
 c35: y(2) + y(7) + y(12) + y(17) + y(22) + y(27) + y(32) + y(37) + y(41)
      + y(46) + y(51) + y(56) + y(61) + y(67) + y(76) + y(81) + y(86) + y(91)
      + y(96) + y(101) + y(107) + y(112) + y(117) + y(122) + y(127) + y(132)
      + y(138) + y(144) + y(149) + y(154) + y(159) + y(164)  = 1
 c36: y(2) + y(7) + y(12) + y(17) + y(22) + y(27) + y(32) + y(37) + y(41)
      + y(46) + y(51) + y(56) + y(61) + y(67) + y(76) + y(81) + y(86) + y(91)
      + y(96) + y(101) + y(107) + y(112) + y(117) + y(122) + y(127) + y(132)
      + y(138) + y(144) + y(149) + y(154) + y(159) + y(164)  = 1
 c37: y(0) + y(5) + y(15) + y(20) + y(25) + y(30) + y(35) + y(39) + y(44)
      + y(49) + y(54) + y(59) + y(63) + y(69) + y(74) + y(79) + y(84) + y(89)
      + y(94) + y(98) + y(104) + y(110) + y(115) + y(120) + y(125) + y(129)
      + y(135) + y(141) + y(147) + y(152) + y(157) + y(162)  = 1
 c38: y(0) + y(5) + y(15) + y(20) + y(25) + y(30) + y(35) + y(39) + y(44)
      + y(49) + y(54) + y(59) + y(63) + y(69) + y(74) + y(79) + y(84) + y(89)
      + y(94) + y(98) + y(104) + y(110) + y(115) + y(120) + y(125) + y(129)
      + y(135) + y(141) + y(147) + y(152) + y(157) + y(162)  = 1
 c39: y(0) + y(5) + y(15) + y(20) + y(25) + y(30) + y(35) + y(39) + y(44)
      + y(49) + y(54) + y(59) + y(63) + y(69) + y(74) + y(79) + y(84) + y(89)
      + y(94) + y(98) + y(104) + y(110) + y(115) + y(120) + y(125) + y(129)
      + y(135) + y(141) + y(147) + y(152) + y(157) + y(162)  = 1
 c40: y(4) + y(9) + y(14) + y(20) + y(24) + y(29) + y(34) + y(39) + y(44)
      + y(48) + y(53) + y(58) + y(63) + y(69) + y(74) + y(79) + y(84) + y(88)
      + y(93) + y(98) + y(104) + y(110) + y(115) + y(119) + y(124) + y(129)
      + y(135) + y(141) + y(147) + y(152) + y(157) + y(162)  = 1
 c41: y(4) + y(9) + y(14) + y(20) + y(24) + y(29) + y(34) + y(39) + y(44)
      + y(48) + y(53) + y(58) + y(63) + y(69) + y(74) + y(79) + y(84) + y(88)
      + y(93) + y(98) + y(104) + y(110) + y(115) + y(119) + y(124) + y(129)
      + y(135) + y(141) + y(147) + y(152) + y(157) + y(162)  = 1
 c42: y(4) + y(9) + y(14) + y(20) + y(24) + y(29) + y(34) + y(39) + y(44)
      + y(48) + y(53) + y(58) + y(63) + y(69) + y(74) + y(79) + y(84) + y(88)
      + y(93) + y(98) + y(104) + y(110) + y(115) + y(119) + y(124) + y(129)
      + y(135) + y(141) + y(147) + y(152) + y(157) + y(162)  = 1
 c43: y(4) + y(9) + y(14) + y(20) + y(24) + y(29) + y(34) + y(39) + y(44)
      + y(48) + y(53) + y(58) + y(63) + y(69) + y(74) + y(79) + y(84) + y(88)
      + y(93) + y(98) + y(104) + y(110) + y(115) + y(119) + y(124) + y(129)
      + y(135) + y(141) + y(147) + y(152) + y(157) + y(166)  = 1
 c44: y(4) + y(9) + y(14) + y(20) + y(24) + y(29) + y(34) + y(39) + y(44)
      + y(48) + y(53) + y(58) + y(63) + y(69) + y(74) + y(79) + y(84) + y(88)
      + y(93) + y(98) + y(104) + y(110) + y(115) + y(119) + y(124) + y(129)
      + y(135) + y(141) + y(147) + y(152) + y(157) + y(166)  = 1
 c45: y(4) + y(9) + y(14) + y(20) + y(24) + y(29) + y(34) + y(39) + y(44)
      + y(48) + y(53) + y(58) + y(63) + y(69) + y(74) + y(79) + y(84) + y(88)
      + y(93) + y(98) + y(104) + y(110) + y(115) + y(119) + y(124) + y(129)
      + y(135) + y(141) + y(147) + y(152) + y(157) + y(166)  = 1
 c46: y(3) + y(8) + y(13) + y(18) + y(23) + y(28) + y(33) + y(37) + y(42)
      + y(47) + y(52) + y(57) + y(61) + y(67) + y(72) + y(77) + y(82) + y(87)
      + y(92) + y(102) + y(108) + y(113) + y(118) + y(123) + y(128) + y(133)
      + y(139) + y(145) + y(150) + y(155) + y(160) + y(165)  = 1
 c47: y(3) + y(8) + y(13) + y(18) + y(23) + y(28) + y(33) + y(37) + y(42)
      + y(47) + y(52) + y(57) + y(61) + y(67) + y(72) + y(77) + y(82) + y(87)
      + y(92) + y(102) + y(108) + y(113) + y(118) + y(123) + y(128) + y(133)
      + y(139) + y(145) + y(150) + y(155) + y(160) + y(165)  = 1
 c48: y(3) + y(8) + y(13) + y(18) + y(23) + y(28) + y(33) + y(37) + y(42)
      + y(47) + y(52) + y(57) + y(61) + y(67) + y(72) + y(77) + y(82) + y(87)
      + y(92) + y(102) + y(108) + y(113) + y(118) + y(123) + y(128) + y(133)
      + y(139) + y(145) + y(150) + y(155) + y(160) + y(165)  = 1
 c49: y(4) + y(9) + y(14) + y(19) + y(24) + y(29) + y(34) + y(39) + y(43)
      + y(48) + y(53) + y(58) + y(63) + y(69) + y(74) + y(78) + y(83) + y(88)
      + y(93) + y(98) + y(104) + y(110) + y(114) + y(119) + y(124) + y(129)
      + y(135) + y(141) + y(147) + y(152) + y(161) + y(166)  = 1
 c50: y(4) + y(9) + y(14) + y(19) + y(24) + y(29) + y(34) + y(39) + y(43)
      + y(48) + y(53) + y(58) + y(63) + y(69) + y(74) + y(78) + y(83) + y(88)
      + y(93) + y(98) + y(104) + y(110) + y(114) + y(119) + y(124) + y(129)
      + y(135) + y(141) + y(147) + y(152) + y(161) + y(166)  = 1
 c51: y(4) + y(9) + y(14) + y(19) + y(24) + y(29) + y(34) + y(39) + y(43)
      + y(48) + y(53) + y(58) + y(63) + y(69) + y(74) + y(78) + y(83) + y(88)
      + y(93) + y(98) + y(104) + y(110) + y(114) + y(119) + y(124) + y(129)
      + y(135) + y(141) + y(147) + y(152) + y(161) + y(166)  = 1
 c52: y(4) + y(9) + y(14) + y(19) + y(24) + y(29) + y(34) + y(38) + y(43)
      + y(48) + y(53) + y(58) + y(63) + y(68) + y(73) + y(78) + y(83) + y(88)
      + y(93) + y(98) + y(104) + y(109) + y(114) + y(119) + y(124) + y(129)
      + y(135) + y(141) + y(151) + y(156) + y(161) + y(166)  = 1
 c53: y(4) + y(9) + y(14) + y(19) + y(24) + y(29) + y(34) + y(38) + y(43)
      + y(48) + y(53) + y(58) + y(63) + y(68) + y(73) + y(78) + y(83) + y(88)
      + y(93) + y(98) + y(104) + y(109) + y(114) + y(119) + y(124) + y(129)
      + y(135) + y(141) + y(151) + y(156) + y(161) + y(166)  = 1
 c54: y(4) + y(9) + y(14) + y(19) + y(24) + y(29) + y(34) + y(38) + y(43)
      + y(48) + y(53) + y(58) + y(63) + y(68) + y(73) + y(78) + y(83) + y(88)
      + y(93) + y(98) + y(104) + y(109) + y(114) + y(119) + y(124) + y(129)
      + y(135) + y(141) + y(151) + y(156) + y(161) + y(166)  = 1
 c55: y(4) + y(9) + y(14) + y(19) + y(24) + y(29) + y(34) + y(39) + y(43)
      + y(48) + y(53) + y(58) + y(63) + y(69) + y(74) + y(78) + y(83) + y(88)
      + y(93) + y(98) + y(104) + y(110) + y(114) + y(119) + y(124) + y(129)
      + y(135) + y(141) + y(147) + y(156) + y(161) + y(166)  = 1
 c56: y(4) + y(9) + y(14) + y(19) + y(24) + y(29) + y(34) + y(39) + y(43)
      + y(48) + y(53) + y(58) + y(63) + y(69) + y(74) + y(78) + y(83) + y(88)
      + y(93) + y(98) + y(104) + y(110) + y(114) + y(119) + y(124) + y(129)
      + y(135) + y(141) + y(147) + y(156) + y(161) + y(166)  = 1
 c57: y(4) + y(9) + y(14) + y(19) + y(24) + y(29) + y(34) + y(39) + y(43)
      + y(48) + y(53) + y(58) + y(63) + y(69) + y(74) + y(78) + y(83) + y(88)
      + y(93) + y(98) + y(104) + y(110) + y(114) + y(119) + y(124) + y(129)
      + y(135) + y(141) + y(147) + y(156) + y(161) + y(166)  = 1
 c58: y(4) + y(9) + y(14) + y(19) + y(24) + y(29) + y(34) + y(38) + y(43)
      + y(48) + y(53) + y(58) + y(62) + y(68) + y(73) + y(78) + y(83) + y(88)
      + y(93) + y(97) + y(103) + y(109) + y(114) + y(119) + y(124) + y(134)
      + y(140) + y(146) + y(151) + y(156) + y(161) + y(166)  = 1
 c59: y(4) + y(9) + y(14) + y(19) + y(24) + y(29) + y(34) + y(38) + y(43)
      + y(48) + y(53) + y(58) + y(62) + y(68) + y(73) + y(78) + y(83) + y(88)
      + y(93) + y(97) + y(103) + y(109) + y(114) + y(119) + y(124) + y(134)
      + y(140) + y(146) + y(151) + y(156) + y(161) + y(166)  = 1
 c60: y(4) + y(9) + y(14) + y(19) + y(24) + y(29) + y(34) + y(38) + y(43)
      + y(48) + y(53) + y(58) + y(62) + y(68) + y(73) + y(78) + y(83) + y(88)
      + y(93) + y(97) + y(103) + y(109) + y(114) + y(119) + y(124) + y(134)
      + y(140) + y(146) + y(151) + y(156) + y(161) + y(166)  = 1
 c61: y(4) + y(9) + y(14) + y(19) + y(24) + y(29) + y(34) + y(38) + y(43)
      + y(48) + y(53) + y(58) + y(63) + y(68) + y(73) + y(78) + y(83) + y(88)
      + y(93) + y(98) + y(104) + y(109) + y(114) + y(119) + y(124) + y(129)
      + y(135) + y(146) + y(151) + y(156) + y(161) + y(166)  = 1
 c62: y(4) + y(9) + y(14) + y(19) + y(24) + y(29) + y(34) + y(38) + y(43)
      + y(48) + y(53) + y(58) + y(63) + y(68) + y(73) + y(78) + y(83) + y(88)
      + y(93) + y(98) + y(104) + y(109) + y(114) + y(119) + y(124) + y(129)
      + y(135) + y(146) + y(151) + y(156) + y(161) + y(166)  = 1
 c63: y(4) + y(9) + y(14) + y(19) + y(24) + y(29) + y(34) + y(38) + y(43)
      + y(48) + y(53) + y(58) + y(63) + y(68) + y(73) + y(78) + y(83) + y(88)
      + y(93) + y(98) + y(104) + y(109) + y(114) + y(119) + y(124) + y(129)
      + y(135) + y(146) + y(151) + y(156) + y(161) + y(166)  = 1
 c64: y(4) + y(9) + y(14) + y(19) + y(24) + y(29) + y(34) + y(38) + y(43)
      + y(48) + y(53) + y(58) + y(62) + y(68) + y(73) + y(78) + y(83) + y(88)
      + y(93) + y(97) + y(103) + y(109) + y(114) + y(119) + y(124) + y(129)
      + y(140) + y(146) + y(151) + y(156) + y(161) + y(166)  = 1
 c65: y(4) + y(9) + y(14) + y(19) + y(24) + y(29) + y(34) + y(38) + y(43)
      + y(48) + y(53) + y(58) + y(62) + y(68) + y(73) + y(78) + y(83) + y(88)
      + y(93) + y(97) + y(103) + y(109) + y(114) + y(119) + y(124) + y(129)
      + y(140) + y(146) + y(151) + y(156) + y(161) + y(166)  = 1
 c66: y(4) + y(9) + y(14) + y(19) + y(24) + y(29) + y(34) + y(38) + y(43)
      + y(48) + y(53) + y(58) + y(62) + y(68) + y(73) + y(78) + y(83) + y(88)
      + y(93) + y(97) + y(103) + y(109) + y(114) + y(119) + y(124) + y(129)
      + y(140) + y(146) + y(151) + y(156) + y(161) + y(166)  = 1
 c67: y(4) + y(8) + y(13) + y(19) + y(24) + y(29) + y(33) + y(38) + y(43)
      + y(48) + y(53) + y(57) + y(62) + y(68) + y(73) + y(78) + y(83) + y(88)
      + y(92) + y(97) + y(103) + y(109) + y(114) + y(119) + y(128) + y(133)
      + y(139) + y(145) + y(151) + y(156) + y(161) + y(166)  = 1
 c68: y(4) + y(8) + y(13) + y(19) + y(24) + y(29) + y(33) + y(38) + y(43)
      + y(48) + y(53) + y(57) + y(62) + y(68) + y(73) + y(78) + y(83) + y(88)
      + y(92) + y(97) + y(103) + y(109) + y(114) + y(119) + y(128) + y(133)
      + y(139) + y(145) + y(151) + y(156) + y(161) + y(166)  = 1
 c69: y(4) + y(8) + y(13) + y(19) + y(24) + y(29) + y(33) + y(38) + y(43)
      + y(48) + y(53) + y(57) + y(62) + y(68) + y(73) + y(78) + y(83) + y(88)
      + y(92) + y(97) + y(103) + y(109) + y(114) + y(119) + y(128) + y(133)
      + y(139) + y(145) + y(151) + y(156) + y(161) + y(166)  = 1
 c70: y(3) + y(8) + y(13) + y(19) + y(23) + y(28) + y(33) + y(38) + y(43)
      + y(47) + y(52) + y(57) + y(62) + y(68) + y(73) + y(78) + y(83) + y(87)
      + y(92) + y(97) + y(103) + y(109) + y(114) + y(123) + y(128) + y(133)
      + y(139) + y(145) + y(151) + y(155) + y(160) + y(165)  = 1
 c71: y(3) + y(8) + y(13) + y(19) + y(23) + y(28) + y(33) + y(38) + y(43)
      + y(47) + y(52) + y(57) + y(62) + y(68) + y(73) + y(78) + y(83) + y(87)
      + y(92) + y(97) + y(103) + y(109) + y(114) + y(123) + y(128) + y(133)
      + y(139) + y(145) + y(151) + y(155) + y(160) + y(165)  = 1
 c72: y(3) + y(8) + y(13) + y(19) + y(23) + y(28) + y(33) + y(38) + y(43)
      + y(47) + y(52) + y(57) + y(62) + y(68) + y(73) + y(78) + y(83) + y(87)
      + y(92) + y(97) + y(103) + y(109) + y(114) + y(123) + y(128) + y(133)
      + y(139) + y(145) + y(151) + y(155) + y(160) + y(165)  = 1
 c73: y(3) + y(8) + y(13) + y(18) + y(23) + y(28) + y(33) + y(38) + y(42)
      + y(47) + y(52) + y(57) + y(62) + y(68) + y(73) + y(77) + y(82) + y(87)
      + y(92) + y(97) + y(103) + y(109) + y(118) + y(123) + y(128) + y(133)
      + y(139) + y(145) + y(150) + y(155) + y(160) + y(165)  = 1
 c74: y(3) + y(8) + y(13) + y(18) + y(23) + y(28) + y(33) + y(38) + y(42)
      + y(47) + y(52) + y(57) + y(62) + y(68) + y(73) + y(77) + y(82) + y(87)
      + y(92) + y(97) + y(103) + y(109) + y(118) + y(123) + y(128) + y(133)
      + y(139) + y(145) + y(150) + y(155) + y(160) + y(165)  = 1
 c75: y(3) + y(8) + y(13) + y(18) + y(23) + y(28) + y(33) + y(38) + y(42)
      + y(47) + y(52) + y(57) + y(62) + y(68) + y(73) + y(77) + y(82) + y(87)
      + y(92) + y(97) + y(103) + y(109) + y(118) + y(123) + y(128) + y(133)
      + y(139) + y(145) + y(150) + y(155) + y(160) + y(165)  = 1
 c76: y(3) + y(8) + y(13) + y(18) + y(23) + y(28) + y(33) + y(37) + y(42)
      + y(47) + y(52) + y(57) + y(62) + y(67) + y(72) + y(77) + y(82) + y(87)
      + y(92) + y(97) + y(103) + y(113) + y(118) + y(123) + y(128) + y(133)
      + y(139) + y(145) + y(150) + y(155) + y(160) + y(165)  = 1
 c77: y(3) + y(8) + y(13) + y(18) + y(23) + y(28) + y(33) + y(37) + y(42)
      + y(47) + y(52) + y(57) + y(62) + y(67) + y(72) + y(77) + y(82) + y(87)
      + y(92) + y(97) + y(103) + y(113) + y(118) + y(123) + y(128) + y(133)
      + y(139) + y(145) + y(150) + y(155) + y(160) + y(165)  = 1
 c78: y(3) + y(8) + y(13) + y(18) + y(23) + y(28) + y(33) + y(37) + y(42)
      + y(47) + y(52) + y(57) + y(62) + y(67) + y(72) + y(77) + y(82) + y(87)
      + y(92) + y(97) + y(103) + y(113) + y(118) + y(123) + y(128) + y(133)
      + y(139) + y(145) + y(150) + y(155) + y(160) + y(165)  = 1
 c79: y(3) + y(8) + y(13) + y(18) + y(23) + y(28) + y(33) + y(37) + y(42)
      + y(47) + y(52) + y(57) + y(61) + y(67) + y(72) + y(77) + y(82) + y(87)
      + y(92) + y(97) + y(108) + y(113) + y(118) + y(123) + y(128) + y(133)
      + y(139) + y(145) + y(150) + y(155) + y(160) + y(165)  = 1
 c80: y(3) + y(8) + y(13) + y(18) + y(23) + y(28) + y(33) + y(37) + y(42)
      + y(47) + y(52) + y(57) + y(61) + y(67) + y(72) + y(77) + y(82) + y(87)
      + y(92) + y(97) + y(108) + y(113) + y(118) + y(123) + y(128) + y(133)
      + y(139) + y(145) + y(150) + y(155) + y(160) + y(165)  = 1
 c81: y(3) + y(8) + y(13) + y(18) + y(23) + y(28) + y(33) + y(37) + y(42)
      + y(47) + y(52) + y(57) + y(61) + y(67) + y(72) + y(77) + y(82) + y(87)
      + y(92) + y(97) + y(108) + y(113) + y(118) + y(123) + y(128) + y(133)
      + y(139) + y(145) + y(150) + y(155) + y(160) + y(165)  = 1
 c82: y(3) + y(7) + y(12) + y(18) + y(23) + y(28) + y(32) + y(37) + y(42)
      + y(47) + y(52) + y(56) + y(61) + y(67) + y(72) + y(77) + y(82) + y(87)
      + y(96) + y(101) + y(107) + y(113) + y(118) + y(123) + y(127) + y(132)
      + y(138) + y(144) + y(150) + y(155) + y(160) + y(165)  = 1
 c83: y(3) + y(7) + y(12) + y(18) + y(23) + y(28) + y(32) + y(37) + y(42)
      + y(47) + y(52) + y(56) + y(61) + y(67) + y(72) + y(77) + y(82) + y(87)
      + y(96) + y(101) + y(107) + y(113) + y(118) + y(123) + y(127) + y(132)
      + y(138) + y(144) + y(150) + y(155) + y(160) + y(165)  = 1
 c84: y(3) + y(7) + y(12) + y(18) + y(23) + y(28) + y(32) + y(37) + y(42)
      + y(47) + y(52) + y(56) + y(61) + y(67) + y(72) + y(77) + y(82) + y(87)
      + y(96) + y(101) + y(107) + y(113) + y(118) + y(123) + y(127) + y(132)
      + y(138) + y(144) + y(150) + y(155) + y(160) + y(165)  = 1
 c85: y(2) + y(7) + y(12) + y(18) + y(22) + y(27) + y(32) + y(37) + y(42)
      + y(46) + y(51) + y(56) + y(61) + y(67) + y(72) + y(77) + y(82) + y(91)
      + y(96) + y(101) + y(107) + y(113) + y(117) + y(122) + y(127) + y(132)
      + y(138) + y(144) + y(150) + y(154) + y(159) + y(164)  = 1
 c86: y(2) + y(7) + y(12) + y(18) + y(22) + y(27) + y(32) + y(37) + y(42)
      + y(46) + y(51) + y(56) + y(61) + y(67) + y(72) + y(77) + y(82) + y(91)
      + y(96) + y(101) + y(107) + y(113) + y(117) + y(122) + y(127) + y(132)
      + y(138) + y(144) + y(150) + y(154) + y(159) + y(164)  = 1
 c87: y(2) + y(7) + y(12) + y(18) + y(22) + y(27) + y(32) + y(37) + y(42)
      + y(46) + y(51) + y(56) + y(61) + y(67) + y(72) + y(77) + y(82) + y(91)
      + y(96) + y(101) + y(107) + y(113) + y(117) + y(122) + y(127) + y(132)
      + y(138) + y(144) + y(150) + y(154) + y(159) + y(164)  = 1
 c88: y(2) + y(7) + y(12) + y(17) + y(22) + y(27) + y(32) + y(37) + y(41)
      + y(46) + y(51) + y(56) + y(61) + y(67) + y(72) + y(77) + y(86) + y(91)
      + y(96) + y(101) + y(107) + y(112) + y(117) + y(122) + y(127) + y(132)
      + y(138) + y(144) + y(149) + y(154) + y(159) + y(164)  = 1
 c89: y(2) + y(7) + y(12) + y(17) + y(22) + y(27) + y(32) + y(37) + y(41)
      + y(46) + y(51) + y(56) + y(61) + y(67) + y(72) + y(77) + y(86) + y(91)
      + y(96) + y(101) + y(107) + y(112) + y(117) + y(122) + y(127) + y(132)
      + y(138) + y(144) + y(149) + y(154) + y(159) + y(164)  = 1
 c90: y(2) + y(7) + y(12) + y(17) + y(22) + y(27) + y(32) + y(37) + y(41)
      + y(46) + y(51) + y(56) + y(61) + y(67) + y(72) + y(77) + y(86) + y(91)
      + y(96) + y(101) + y(107) + y(112) + y(117) + y(122) + y(127) + y(132)
      + y(138) + y(144) + y(149) + y(154) + y(159) + y(164)  = 1
 c91: y(2) + y(7) + y(12) + y(17) + y(22) + y(27) + y(32) + y(37) + y(41)
      + y(46) + y(51) + y(56) + y(61) + y(67) + y(72) + y(81) + y(86) + y(91)
      + y(96) + y(101) + y(107) + y(112) + y(117) + y(122) + y(127) + y(132)
      + y(138) + y(144) + y(149) + y(154) + y(159) + y(164)  = 1
 c92: y(2) + y(7) + y(12) + y(17) + y(22) + y(27) + y(32) + y(37) + y(41)
      + y(46) + y(51) + y(56) + y(61) + y(67) + y(72) + y(81) + y(86) + y(91)
      + y(96) + y(101) + y(107) + y(112) + y(117) + y(122) + y(127) + y(132)
      + y(138) + y(144) + y(149) + y(154) + y(159) + y(164)  = 1
 c93: y(2) + y(7) + y(12) + y(17) + y(22) + y(27) + y(32) + y(37) + y(41)
      + y(46) + y(51) + y(56) + y(61) + y(67) + y(72) + y(81) + y(86) + y(91)
      + y(96) + y(101) + y(107) + y(112) + y(117) + y(122) + y(127) + y(132)
      + y(138) + y(144) + y(149) + y(154) + y(159) + y(164)  = 1
 c94: y(0) + y(5) + y(10) + y(16) + y(25) + y(30) + y(35) + y(40) + y(44)
      + y(49) + y(54) + y(59) + y(64) + y(70) + y(75) + y(79) + y(84) + y(89)
      + y(94) + y(99) + y(105) + y(111) + y(115) + y(120) + y(125) + y(130)
      + y(136) + y(142) + y(148) + y(152) + y(157) + y(162)  = 1
 c95: y(0) + y(5) + y(10) + y(16) + y(25) + y(30) + y(35) + y(40) + y(44)
      + y(49) + y(54) + y(59) + y(64) + y(70) + y(75) + y(79) + y(84) + y(89)
      + y(94) + y(99) + y(105) + y(111) + y(115) + y(120) + y(125) + y(130)
      + y(136) + y(142) + y(148) + y(152) + y(157) + y(162)  = 1
 c96: y(0) + y(5) + y(10) + y(16) + y(25) + y(30) + y(35) + y(40) + y(44)
      + y(49) + y(54) + y(59) + y(64) + y(70) + y(75) + y(79) + y(84) + y(89)
      + y(94) + y(99) + y(105) + y(111) + y(115) + y(120) + y(125) + y(130)
      + y(136) + y(142) + y(148) + y(152) + y(157) + y(162)  = 1
 c97: y(0) + y(1) + y(2) + y(3) + y(4) + y(5) + y(6) + y(7) + y(8) + y(9)
      + y(10) + y(11) + y(12) + y(13) + y(14) + y(15) + y(16) + y(17) + y(18)
      + y(19) + y(20) + y(21) + y(22) + y(23) + y(24) + y(25) + y(26) + y(27)
      + y(28) + y(29) + y(30) + y(31) + y(32) + y(33) + y(34) + y(35) + y(36)
      + y(37) + y(38) + y(39) + y(40) + y(41) + y(42) + y(43) + y(44) + y(45)
      + y(46) + y(47) + y(48) + y(49) + y(50) + y(51) + y(52) + y(53) + y(54)
      + y(55) + y(56) + y(57) + y(58) + y(59) + y(60) + y(61) + y(62) + y(63)
      + y(64) + y(65) + y(66) + y(67) + y(68) + y(69) + y(70) + y(71) + y(72)
      + y(73) + y(74) + y(75) + y(76) + y(77) + y(78) + y(79) + y(80) + y(81)
      + y(82) + y(83) + y(84) + y(85) + y(86) + y(87) + y(88) + y(89) + y(90)
      + y(91) + y(92) + y(93) + y(94) + y(95) + y(96) + y(97) + y(98) + y(99)
      + y(100) + y(101) + y(102) + y(103) + y(104) + y(105) + y(106) + y(107)
      + y(108) + y(109) + y(110) + y(111) + y(112) + y(113) + y(114) + y(115)
      + y(116) + y(117) + y(118) + y(119) + y(120) + y(121) + y(122) + y(123)
      + y(124) + y(125) + y(126) + y(127) + y(128) + y(129) + y(130) + y(131)
      + y(132) + y(133) + y(134) + y(135) + y(136) + y(137) + y(138) + y(139)
      + y(140) + y(141) + y(142) + y(143) + y(144) + y(145) + y(146) + y(147)
      + y(148) + y(149) + y(150) + y(151) + y(152) + y(153) + y(154) + y(155)
      + y(156) + y(157) + y(158) + y(159) + y(160) + y(161) + y(162) + y(163)
      + y(164) + y(165) + y(166) >= 4
 c98: y(0) + y(1) + y(2) + y(3) + y(4) + y(5) + y(6) + y(7) + y(8) + y(9)
      + y(10) + y(11) + y(12) + y(13) + y(14) + y(15) + y(16) + y(17) + y(18)
      + y(19) + y(20) + y(21) + y(22) + y(23) + y(24) + y(25) + y(26) + y(27)
      + y(28) + y(29) + y(30) + y(31) + y(32) + y(33) + y(34) + y(35) + y(36)
      + y(37) + y(38) + y(39) + y(40) + y(41) + y(42) + y(43) + y(44) + y(45)
      + y(46) + y(47) + y(48) + y(49) + y(50) + y(51) + y(52) + y(53) + y(54)
      + y(55) + y(56) + y(57) + y(58) + y(59) + y(60) + y(61) + y(62) + y(63)
      + y(64) + y(65) + y(66) + y(67) + y(68) + y(69) + y(70) + y(71) + y(72)
      + y(73) + y(74) + y(75) + y(76) + y(77) + y(78) + y(79) + y(80) + y(81)
      + y(82) + y(83) + y(84) + y(85) + y(86) + y(87) + y(88) + y(89) + y(90)
      + y(91) + y(92) + y(93) + y(94) + y(95) + y(96) + y(97) + y(98) + y(99)
      + y(100) + y(101) + y(102) + y(103) + y(104) + y(105) + y(106) + y(107)
      + y(108) + y(109) + y(110) + y(111) + y(112) + y(113) + y(114) + y(115)
      + y(116) + y(117) + y(118) + y(119) + y(120) + y(121) + y(122) + y(123)
      + y(124) + y(125) + y(126) + y(127) + y(128) + y(129) + y(130) + y(131)
      + y(132) + y(133) + y(134) + y(135) + y(136) + y(137) + y(138) + y(139)
      + y(140) + y(141) + y(142) + y(143) + y(144) + y(145) + y(146) + y(147)
      + y(148) + y(149) + y(150) + y(151) + y(152) + y(153) + y(154) + y(155)
      + y(156) + y(157) + y(158) + y(159) + y(160) + y(161) + y(162) + y(163)
      + y(164) + y(165) + y(166) <= 9
Bounds
 0 <= y(0) <= 1
 0 <= y(1) <= 1
 0 <= y(2) <= 1
 0 <= y(3) <= 1
 0 <= y(4) <= 1
 0 <= y(5) <= 1
 0 <= y(6) <= 1
 0 <= y(7) <= 1
 0 <= y(8) <= 1
 0 <= y(9) <= 1
 0 <= y(10) <= 1
 0 <= y(11) <= 1
 0 <= y(12) <= 1
 0 <= y(13) <= 1
 0 <= y(14) <= 1
 0 <= y(15) <= 1
 0 <= y(16) <= 1
 0 <= y(17) <= 1
 0 <= y(18) <= 1
 0 <= y(19) <= 1
 0 <= y(20) <= 1
 0 <= y(21) <= 1
 0 <= y(22) <= 1
 0 <= y(23) <= 1
 0 <= y(24) <= 1
 0 <= y(25) <= 1
 0 <= y(26) <= 1
 0 <= y(27) <= 1
 0 <= y(28) <= 1
 0 <= y(29) <= 1
 0 <= y(30) <= 1
 0 <= y(31) <= 1
 0 <= y(32) <= 1
 0 <= y(33) <= 1
 0 <= y(34) <= 1
 0 <= y(35) <= 1
 0 <= y(36) <= 1
 0 <= y(37) <= 1
 0 <= y(38) <= 1
 0 <= y(39) <= 1
 0 <= y(40) <= 1
 0 <= y(41) <= 1
 0 <= y(42) <= 1
 0 <= y(43) <= 1
 0 <= y(44) <= 1
 0 <= y(45) <= 1
 0 <= y(46) <= 1
 0 <= y(47) <= 1
 0 <= y(48) <= 1
 0 <= y(49) <= 1
 0 <= y(50) <= 1
 0 <= y(51) <= 1
 0 <= y(52) <= 1
 0 <= y(53) <= 1
 0 <= y(54) <= 1
 0 <= y(55) <= 1
 0 <= y(56) <= 1
 0 <= y(57) <= 1
 0 <= y(58) <= 1
 0 <= y(59) <= 1
 0 <= y(60) <= 1
 0 <= y(61) <= 1
 0 <= y(62) <= 1
 0 <= y(63) <= 1
 0 <= y(64) <= 1
 0 <= y(65) <= 1
 0 <= y(66) <= 1
 0 <= y(67) <= 1
 0 <= y(68) <= 1
 0 <= y(69) <= 1
 0 <= y(70) <= 1
 0 <= y(71) <= 1
 0 <= y(72) <= 1
 0 <= y(73) <= 1
 0 <= y(74) <= 1
 0 <= y(75) <= 1
 0 <= y(76) <= 1
 0 <= y(77) <= 1
 0 <= y(78) <= 1
 0 <= y(79) <= 1
 0 <= y(80) <= 1
 0 <= y(81) <= 1
 0 <= y(82) <= 1
 0 <= y(83) <= 1
 0 <= y(84) <= 1
 0 <= y(85) <= 1
 0 <= y(86) <= 1
 0 <= y(87) <= 1
 0 <= y(88) <= 1
 0 <= y(89) <= 1
 0 <= y(90) <= 1
 0 <= y(91) <= 1
 0 <= y(92) <= 1
 0 <= y(93) <= 1
 0 <= y(94) <= 1
 0 <= y(95) <= 1
 0 <= y(96) <= 1
 0 <= y(97) <= 1
 0 <= y(98) <= 1
 0 <= y(99) <= 1
 0 <= y(100) <= 1
 0 <= y(101) <= 1
 0 <= y(102) <= 1
 0 <= y(103) <= 1
 0 <= y(104) <= 1
 0 <= y(105) <= 1
 0 <= y(106) <= 1
 0 <= y(107) <= 1
 0 <= y(108) <= 1
 0 <= y(109) <= 1
 0 <= y(110) <= 1
 0 <= y(111) <= 1
 0 <= y(112) <= 1
 0 <= y(113) <= 1
 0 <= y(114) <= 1
 0 <= y(115) <= 1
 0 <= y(116) <= 1
 0 <= y(117) <= 1
 0 <= y(118) <= 1
 0 <= y(119) <= 1
 0 <= y(120) <= 1
 0 <= y(121) <= 1
 0 <= y(122) <= 1
 0 <= y(123) <= 1
 0 <= y(124) <= 1
 0 <= y(125) <= 1
 0 <= y(126) <= 1
 0 <= y(127) <= 1
 0 <= y(128) <= 1
 0 <= y(129) <= 1
 0 <= y(130) <= 1
 0 <= y(131) <= 1
 0 <= y(132) <= 1
 0 <= y(133) <= 1
 0 <= y(134) <= 1
 0 <= y(135) <= 1
 0 <= y(136) <= 1
 0 <= y(137) <= 1
 0 <= y(138) <= 1
 0 <= y(139) <= 1
 0 <= y(140) <= 1
 0 <= y(141) <= 1
 0 <= y(142) <= 1
 0 <= y(143) <= 1
 0 <= y(144) <= 1
 0 <= y(145) <= 1
 0 <= y(146) <= 1
 0 <= y(147) <= 1
 0 <= y(148) <= 1
 0 <= y(149) <= 1
 0 <= y(150) <= 1
 0 <= y(151) <= 1
 0 <= y(152) <= 1
 0 <= y(153) <= 1
 0 <= y(154) <= 1
 0 <= y(155) <= 1
 0 <= y(156) <= 1
 0 <= y(157) <= 1
 0 <= y(158) <= 1
 0 <= y(159) <= 1
 0 <= y(160) <= 1
 0 <= y(161) <= 1
 0 <= y(162) <= 1
 0 <= y(163) <= 1
 0 <= y(164) <= 1
 0 <= y(165) <= 1
 0 <= y(166) <= 1
Binaries
 y(0)  y(1)  y(2)  y(3)  y(4)  y(5)  y(6)  y(7)  y(8)  y(9)  y(10)  y(11) 
 y(12)  y(13)  y(14)  y(15)  y(16)  y(17)  y(18)  y(19)  y(20)  y(21)  y(22) 
 y(23)  y(24)  y(25)  y(26)  y(27)  y(28)  y(29)  y(30)  y(31)  y(32)  y(33) 
 y(34)  y(35)  y(36)  y(37)  y(38)  y(39)  y(40)  y(41)  y(42)  y(43)  y(44) 
 y(45)  y(46)  y(47)  y(48)  y(49)  y(50)  y(51)  y(52)  y(53)  y(54)  y(55) 
 y(56)  y(57)  y(58)  y(59)  y(60)  y(61)  y(62)  y(63)  y(64)  y(65)  y(66) 
 y(67)  y(68)  y(69)  y(70)  y(71)  y(72)  y(73)  y(74)  y(75)  y(76)  y(77) 
 y(78)  y(79)  y(80)  y(81)  y(82)  y(83)  y(84)  y(85)  y(86)  y(87)  y(88) 
 y(89)  y(90)  y(91)  y(92)  y(93)  y(94)  y(95)  y(96)  y(97)  y(98)  y(99) 
 y(100)  y(101)  y(102)  y(103)  y(104)  y(105)  y(106)  y(107)  y(108) 
 y(109)  y(110)  y(111)  y(112)  y(113)  y(114)  y(115)  y(116)  y(117) 
 y(118)  y(119)  y(120)  y(121)  y(122)  y(123)  y(124)  y(125)  y(126) 
 y(127)  y(128)  y(129)  y(130)  y(131)  y(132)  y(133)  y(134)  y(135) 
 y(136)  y(137)  y(138)  y(139)  y(140)  y(141)  y(142)  y(143)  y(144) 
 y(145)  y(146)  y(147)  y(148)  y(149)  y(150)  y(151)  y(152)  y(153) 
 y(154)  y(155)  y(156)  y(157)  y(158)  y(159)  y(160)  y(161)  y(162) 
 y(163)  y(164)  y(165)  y(166) 
End
